p wcnf 146 384
w -2 0.367879 0
w 2 2.718282 0
w -3 0.367879 0
w 3 2.718282 0
w -4 0.367879 0
w 4 2.718282 0
w -5 0.367879 0
w 5 2.718282 0
w -7 0.367879 0
w 7 2.718282 0
w -8 0.367879 0
w 8 2.718282 0
w -9 0.367879 0
w 9 2.718282 0
w -10 0.367879 0
w 10 2.718282 0
w -12 0.367879 0
w 12 2.718282 0
w -13 0.367879 0
w 13 2.718282 0
w -14 0.367879 0
w 14 2.718282 0
w -15 0.367879 0
w 15 2.718282 0
w -16 0.367879 0
w 16 2.718282 0
w -18 0.367879 0
w 18 2.718282 0
w -19 0.367879 0
w 19 2.718282 0
w -20 0.367879 0
w 20 2.718282 0
w -21 0.367879 0
w 21 2.718282 0
w -22 0.367879 0
w 22 2.718282 0
w -24 0.367879 0
w 24 2.718282 0
w -25 0.367879 0
w 25 2.718282 0
w -26 0.367879 0
w 26 2.718282 0
w -27 0.367879 0
w 27 2.718282 0
w -29 0.367879 0
w 29 2.718282 0
w -30 0.367879 0
w 30 2.718282 0
w -31 0.367879 0
w 31 2.718282 0
w -32 0.367879 0
w 32 2.718282 0
w -34 0.367879 0
w 34 2.718282 0
w -35 0.367879 0
w 35 2.718282 0
w -36 0.367879 0
w 36 2.718282 0
w -37 0.367879 0
w 37 2.718282 0
w -39 0.367879 0
w 39 2.718282 0
w -40 0.367879 0
w 40 2.718282 0
w -42 0.367879 0
w 42 2.718282 0
w -43 0.367879 0
w 43 2.718282 0
w -44 0.367879 0
w 44 2.718282 0
w -45 0.367879 0
w 45 2.718282 0
w -46 0.367879 0
w 46 2.718282 0
w -48 0.367879 0
w 48 2.718282 0
w -49 0.367879 0
w 49 2.718282 0
w -51 0.367879 0
w 51 2.718282 0
w -52 0.367879 0
w 52 2.718282 0
w -54 0.367879 0
w 54 2.718282 0
w -55 0.367879 0
w 55 2.718282 0
w -56 0.367879 0
w 56 2.718282 0
w -58 0.367879 0
w 58 2.718282 0
w -59 0.367879 0
w 59 2.718282 0
w -60 0.367879 0
w 60 2.718282 0
w -62 0.367879 0
w 62 2.718282 0
w -63 0.367879 0
w 63 2.718282 0
w -65 0.367879 0
w 65 2.718282 0
w -66 0.367879 0
w 66 2.718282 0
w -67 0.367879 0
w 67 2.718282 0
w -68 0.367879 0
w 68 2.718282 0
w -69 0.367879 0
w 69 2.718282 0
w -71 0.367879 0
w 71 2.718282 0
w -72 0.367879 0
w 72 2.718282 0
w -74 0.367879 0
w 74 2.718282 0
w -75 0.367879 0
w 75 2.718282 0
w -77 0.367879 0
w 77 2.718282 0
w -78 0.367879 0
w 78 2.718282 0
w -79 0.367879 0
w 79 2.718282 0
w -81 0.367879 0
w 81 2.718282 0
w -82 0.367879 0
w 82 2.718282 0
w -84 0.367879 0
w 84 2.718282 0
w -85 0.367879 0
w 85 2.718282 0
w -87 0.367879 0
w 87 2.718282 0
w -88 0.367879 0
w 88 2.718282 0
w -89 0.367879 0
w 89 2.718282 0
w -91 0.367879 0
w 91 2.718282 0
w -92 0.367879 0
w 92 2.718282 0
w -94 0.367879 0
w 94 2.718282 0
w -95 0.367879 0
w 95 2.718282 0
w -96 0.367879 0
w 96 2.718282 0
w -98 0.367879 0
w 98 2.718282 0
w -100 0.367879 0
w 100 2.718282 0
w -101 0.367879 0
w 101 2.718282 0
w -102 0.367879 0
w 102 2.718282 0
w -105 0.367879 0
w 105 2.718282 0
w -106 0.367879 0
w 106 2.718282 0
w -107 0.367879 0
w 107 2.718282 0
w -108 0.367879 0
w 108 2.718282 0
w -111 0.367879 0
w 111 2.718282 0
w -113 0.367879 0
w 113 2.718282 0
w -114 0.367879 0
w 114 2.718282 0
w -116 0.367879 0
w 116 2.718282 0
w -118 0.367879 0
w 118 2.718282 0
w -119 0.367879 0
w 119 2.718282 0
w -120 0.367879 0
w 120 2.718282 0
w -121 0.367879 0
w 121 2.718282 0
w -123 0.367879 0
w 123 2.718282 0
w -126 0.367879 0
w 126 2.718282 0
w -129 0.367879 0
w 129 2.718282 0
w -131 0.367879 0
w 131 2.718282 0
w -137 0.367879 0
w 137 2.718282 0
w -138 0.367879 0
w 138 2.718282 0
w -140 0.367879 0
w 140 2.718282 0
2 1 50 0
2 -1 -50 0
-2 1 -50 0
-2 -1 50 0
3 1 83 0
3 -1 -83 0
-3 1 -83 0
-3 -1 83 0
4 1 86 0
4 -1 -86 0
-4 1 -86 0
-4 -1 86 0
5 1 122 0
5 -1 -122 0
-5 1 -122 0
-5 -1 122 0
7 6 132 0
7 -6 -132 0
-7 6 -132 0
-7 -6 132 0
8 6 133 0
8 -6 -133 0
-8 6 -133 0
-8 -6 133 0
9 6 139 0
9 -6 -139 0
-9 6 -139 0
-9 -6 139 0
10 6 142 0
10 -6 -142 0
-10 6 -142 0
-10 -6 142 0
12 11 50 0
12 -11 -50 0
-12 11 -50 0
-12 -11 50 0
13 11 97 0
13 -11 -97 0
-13 11 -97 0
-13 -11 97 0
14 11 99 0
14 -11 -99 0
-14 11 -99 0
-14 -11 99 0
15 11 110 0
15 -11 -110 0
-15 11 -110 0
-15 -11 110 0
16 11 143 0
16 -11 -143 0
-16 11 -143 0
-16 -11 143 0
18 17 41 0
18 -17 -41 0
-18 17 -41 0
-18 -17 41 0
19 17 47 0
19 -17 -47 0
-19 17 -47 0
-19 -17 47 0
20 17 122 0
20 -17 -122 0
-20 17 -122 0
-20 -17 122 0
21 17 124 0
21 -17 -124 0
-21 17 -124 0
-21 -17 124 0
22 17 141 0
22 -17 -141 0
-22 17 -141 0
-22 -17 141 0
24 23 86 0
24 -23 -86 0
-24 23 -86 0
-24 -23 86 0
25 23 93 0
25 -23 -93 0
-25 23 -93 0
-25 -23 93 0
26 23 122 0
26 -23 -122 0
-26 23 -122 0
-26 -23 122 0
27 23 124 0
27 -23 -124 0
-27 23 -124 0
-27 -23 124 0
29 28 109 0
29 -28 -109 0
-29 28 -109 0
-29 -28 109 0
30 28 134 0
30 -28 -134 0
-30 28 -134 0
-30 -28 134 0
31 28 144 0
31 -28 -144 0
-31 28 -144 0
-31 -28 144 0
32 28 145 0
32 -28 -145 0
-32 28 -145 0
-32 -28 145 0
34 33 73 0
34 -33 -73 0
-34 33 -73 0
-34 -33 73 0
35 33 109 0
35 -33 -109 0
-35 33 -109 0
-35 -33 109 0
36 33 125 0
36 -33 -125 0
-36 33 -125 0
-36 -33 125 0
37 33 136 0
37 -33 -136 0
-37 33 -136 0
-37 -33 136 0
39 38 97 0
39 -38 -97 0
-39 38 -97 0
-39 -38 97 0
40 38 112 0
40 -38 -112 0
-40 38 -112 0
-40 -38 112 0
42 41 53 0
42 -41 -53 0
-42 41 -53 0
-42 -41 53 0
43 41 97 0
43 -41 -97 0
-43 41 -97 0
-43 -41 97 0
44 41 104 0
44 -41 -104 0
-44 41 -104 0
-44 -41 104 0
45 41 128 0
45 -41 -128 0
-45 41 -128 0
-45 -41 128 0
46 41 143 0
46 -41 -143 0
-46 41 -143 0
-46 -41 143 0
48 47 117 0
48 -47 -117 0
-48 47 -117 0
-48 -47 117 0
49 47 132 0
49 -47 -132 0
-49 47 -132 0
-49 -47 132 0
51 50 97 0
51 -50 -97 0
-51 50 -97 0
-51 -50 97 0
52 50 133 0
52 -50 -133 0
-52 50 -133 0
-52 -50 133 0
54 53 93 0
54 -53 -93 0
-54 53 -93 0
-54 -53 93 0
55 53 110 0
55 -53 -110 0
-55 53 -110 0
-55 -53 110 0
56 53 135 0
56 -53 -135 0
-56 53 -135 0
-56 -53 135 0
58 57 97 0
58 -57 -97 0
-58 57 -97 0
-58 -57 97 0
59 57 143 0
59 -57 -143 0
-59 57 -143 0
-59 -57 143 0
60 57 144 0
60 -57 -144 0
-60 57 -144 0
-60 -57 144 0
62 61 109 0
62 -61 -109 0
-62 61 -109 0
-62 -61 109 0
63 61 128 0
63 -61 -128 0
-63 61 -128 0
-63 -61 128 0
65 64 80 0
65 -64 -80 0
-65 64 -80 0
-65 -64 80 0
66 64 86 0
66 -64 -86 0
-66 64 -86 0
-66 -64 86 0
67 64 109 0
67 -64 -109 0
-67 64 -109 0
-67 -64 109 0
68 64 122 0
68 -64 -122 0
-68 64 -122 0
-68 -64 122 0
69 64 133 0
69 -64 -133 0
-69 64 -133 0
-69 -64 133 0
71 70 122 0
71 -70 -122 0
-71 70 -122 0
-71 -70 122 0
72 70 145 0
72 -70 -145 0
-72 70 -145 0
-72 -70 145 0
74 73 76 0
74 -73 -76 0
-74 73 -76 0
-74 -73 76 0
75 73 144 0
75 -73 -144 0
-75 73 -144 0
-75 -73 144 0
77 76 133 0
77 -76 -133 0
-77 76 -133 0
-77 -76 133 0
78 76 136 0
78 -76 -136 0
-78 76 -136 0
-78 -76 136 0
79 76 144 0
79 -76 -144 0
-79 76 -144 0
-79 -76 144 0
81 80 128 0
81 -80 -128 0
-81 80 -128 0
-81 -80 128 0
82 80 142 0
82 -80 -142 0
-82 80 -142 0
-82 -80 142 0
84 83 117 0
84 -83 -117 0
-84 83 -117 0
-84 -83 117 0
85 83 144 0
85 -83 -144 0
-85 83 -144 0
-85 -83 144 0
87 86 112 0
87 -86 -112 0
-87 86 -112 0
-87 -86 112 0
88 86 139 0
88 -86 -139 0
-88 86 -139 0
-88 -86 139 0
89 86 143 0
89 -86 -143 0
-89 86 -143 0
-89 -86 143 0
91 90 104 0
91 -90 -104 0
-91 90 -104 0
-91 -90 104 0
92 90 130 0
92 -90 -130 0
-92 90 -130 0
-92 -90 130 0
94 93 117 0
94 -93 -117 0
-94 93 -117 0
-94 -93 117 0
95 93 122 0
95 -93 -122 0
-95 93 -122 0
-95 -93 122 0
96 93 127 0
96 -93 -127 0
-96 93 -127 0
-96 -93 127 0
98 97 142 0
98 -97 -142 0
-98 97 -142 0
-98 -97 142 0
100 99 124 0
100 -99 -124 0
-100 99 -124 0
-100 -99 124 0
101 99 133 0
101 -99 -133 0
-101 99 -133 0
-101 -99 133 0
102 99 145 0
102 -99 -145 0
-102 99 -145 0
-102 -99 145 0
105 104 109 0
105 -104 -109 0
-105 104 -109 0
-105 -104 109 0
106 104 122 0
106 -104 -122 0
-106 104 -122 0
-106 -104 122 0
107 104 128 0
107 -104 -128 0
-107 104 -128 0
-107 -104 128 0
108 104 134 0
108 -104 -134 0
-108 104 -134 0
-108 -104 134 0
111 110 117 0
111 -110 -117 0
-111 110 -117 0
-111 -110 117 0
113 112 134 0
113 -112 -134 0
-113 112 -134 0
-113 -112 134 0
114 112 135 0
114 -112 -135 0
-114 112 -135 0
-114 -112 135 0
116 115 127 0
116 -115 -127 0
-116 115 -127 0
-116 -115 127 0
118 117 122 0
118 -117 -122 0
-118 117 -122 0
-118 -117 122 0
119 117 128 0
119 -117 -128 0
-119 117 -128 0
-119 -117 128 0
120 117 142 0
120 -117 -142 0
-120 117 -142 0
-120 -117 142 0
121 117 144 0
121 -117 -144 0
-121 117 -144 0
-121 -117 144 0
123 122 127 0
123 -122 -127 0
-123 122 -127 0
-123 -122 127 0
126 125 132 0
126 -125 -132 0
-126 125 -132 0
-126 -125 132 0
129 128 139 0
129 -128 -139 0
-129 128 -139 0
-129 -128 139 0
131 130 141 0
131 -130 -141 0
-131 130 -141 0
-131 -130 141 0
137 136 143 0
137 -136 -143 0
-137 136 -143 0
-137 -136 143 0
138 136 145 0
138 -136 -145 0
-138 136 -145 0
-138 -136 145 0
140 139 141 0
140 -139 -141 0
-140 139 -141 0
-140 -139 141 0
